letting n_nurses=25
letting n_days=7
letting n_shift_types=4
letting max_covers=15
letting t_covers=87
letting covers=[2,3,10,0,8,9,0,0,0,15,9,0,5,3,0,0,1,6,2,0,4,6,0,0,3,1,0,0]
letting prefes=[3,4,2,1,1,2,3,4,2,1,1,4,2,1,1,4,1,2,3,4,1,2,3,4,1,2,3,4,3,4,1,4,2,1,1,3,2,4,1,3,2,4,1,3,2,1,1,3,2,1,1,3,2,1,1,3,1,4,2,4,2,1,1,4,2,1,1,4,2,1,1,4,2,1,1,4,2,1,1,4,2,1,1,4,3,4,2,4,2,1,1,4,2,1,3,4,2,1,3,4,2,1,1,4,2,1,1,4,2,1,1,4,3,4,1,4,2,1,1,3,2,4,1,3,2,4,1,3,2,1,1,3,2,1,1,3,2,1,1,3,3,4,2,4,2,1,1,4,2,1,1,4,2,1,1,4,2,1,1,4,2,1,1,4,2,1,1,4,3,1,2,4,2,1,1,4,2,1,1,4,2,1,1,4,2,1,1,4,2,1,1,4,2,1,1,4,3,4,2,1,1,2,3,4,2,1,3,4,2,1,3,4,1,2,3,4,1,2,3,4,1,2,3,4,1,4,2,4,1,2,3,4,2,1,1,4,2,1,1,4,1,2,3,4,1,2,3,4,1,2,3,4,3,4,2,4,2,1,1,4,2,1,1,4,2,1,1,4,2,1,1,4,2,1,1,4,2,1,1,4,3,4,2,1,2,1,1,4,2,1,1,4,2,1,1,4,2,1,1,4,2,1,1,4,2,1,1,4,3,4,2,4,2,1,3,4,2,1,1,4,2,1,1,4,2,1,3,4,2,1,3,4,2,1,3,4,3,4,2,4,2,1,1,3,1,4,1,3,1,4,1,3,2,1,1,3,2,1,1,3,2,1,1,3,3,4,1,4,2,1,3,4,1,1,3,4,1,1,3,4,2,1,3,4,2,1,3,4,2,1,3,4,3,1,2,4,2,1,1,4,2,1,3,4,2,1,3,4,2,1,1,4,2,1,1,4,2,1,1,4,3,4,1,1,2,1,1,3,1,4,1,3,1,4,1,3,2,1,1,3,2,1,1,3,2,1,1,3,1,4,2,4,2,1,1,4,2,1,1,4,2,1,1,4,2,1,1,4,2,1,1,4,2,1,1,4,3,1,2,4,2,1,1,4,2,1,1,4,2,1,1,4,2,1,1,4,2,1,1,4,2,1,1,4,3,1,2,4,2,1,1,3,2,4,1,3,2,4,1,3,2,1,1,3,2,1,1,3,2,1,1,3,3,4,2,4,1,2,1,4,1,1,3,4,1,1,3,4,1,2,1,4,1,2,1,4,1,2,1,4,3,4,2,4,2,1,1,4,2,1,1,4,2,1,1,4,2,1,1,4,2,1,1,4,2,1,1,4,3,4,2,4,2,1,1,4,2,1,1,4,2,1,1,4,2,1,1,4,2,1,1,4,2,1,1,4,1,4,2,1,2,1,1,4,1,1,1,4,1,1,1,4,2,1,1,4,2,1,1,4,2,1,1,4,1,1,1,4,2,1,1,4,2,1,1,4,2,1,1,4,2,1,1,4,2,1,1,4,2,1,1,4,3,4,2,4,1,2,1,4,2,1,1,4,2,1,1,4,1,2,1,4,1,2,1,4,1,2,1,4]
letting ub =  310
